Maximize
F - f1 - f2

Subject to
F - 0y37 - 0y82 - 4y94 - 4y96 - 4y173 - 4y182 - 2y203 - 6y216 - 8y234 - 4y255 - 6y43 - 6y145 - 8y81 - 2y159 - 6y123 - 8y72 - 6y54 - 6y165 - 8y233 = 0
f1 - 0.007658s37 - 0.007658s82 - 0.007658s94 - 0.007658s96 - 0.007658s173 - 0.007658s182 - 0.007658s203 - 0.007658s216 - 0.007658s234 - 0.007658s255 - 0.007658s43 - 0.007658s145 - 0.007658s81 - 0.007658s159 - 0.007658s123 - 0.007658s72 - 0.007658s54 - 0.007658s165 - 0.007658s233  = 0
f2 - 2.42y37 - 1.84y82 - 2.46y94 - 2.72y96 - 2.63y173 - 2.37y182 - 2.34y203 - 1.98y216 - 1.91y234 - 3.24y255 - 1.38y43 - 1.83y145 - 0.93y81 - 0.74y159 - 0.88y123 - 0.54y72 - 0.59y54 - 0.37y165 - 0.42y233 = 0

x23x234x1 + x23x81x1 + x23x159x1 + x23x233x1 
<= 1
x230x173x1 + x230x203x1 + x230x234x1 + x230x81x1 + x230x159x1 + x230x233x1 
<= 2
x264x173x1 + x264x203x1 + x264x234x1 + x264x81x1 + x264x159x1 + x264x233x1 
<= 2
x45x173x1 + x45x203x1 + x45x234x1 + x45x81x1 + x45x159x1 + x45x233x1 
<= 1
x103x234x1 + x103x81x1 + x103x159x1 + x103x233x1 
<= 1
x263x234x1 + x263x81x1 + x263x159x1 + x263x233x1 
<= 1
x178x81x1 + x178x159x1 + x178x233x1 
<= 1

x197x82x2 + x197x216x2 + x197x43x2 + x197x123x2 + x197x72x2 + x197x54x2 + x197x165x2 
<= 2
x219x82x2 + x219x43x2 + x219x123x2 + x219x72x2 + x219x54x2 + x219x165x2 
<= 1
x23x82x2 + x23x216x2 + x23x43x2 + x23x123x2 + x23x72x2 + x23x54x2 + x23x165x2 
<= 1
x37x43x2 + x37x123x2 + x37x72x2 + x37x54x2 + x37x165x2 
<= 1
x93x72x2 + x93x54x2 + x93x165x2 
<= 1
x82x123x2 + x82x72x2 + x82x54x2 + x82x165x2 
<= 1
x263x82x2 + x263x43x2 + x263x123x2 + x263x72x2 + x263x54x2 + x263x165x2 
<= 1
x178x82x2 + x178x43x2 + x178x123x2 + x178x72x2 + x178x54x2 + x178x165x2 
<= 1

x219x82x3 + x219x145x3 + x219x81x3 + x219x159x3 + x219x72x3 + x219x233x3 
<= 1
x66x82x3 + x66x216x3 + x66x145x3 + x66x81x3 + x66x159x3 + x66x72x3 + x66x233x3 
<= 2
x37x145x3 + x37x81x3 + x37x159x3 + x37x72x3 + x37x233x3 
<= 1
x93x159x3 + x93x72x3 + x93x233x3 
<= 1
x82x145x3 + x82x81x3 + x82x159x3 + x82x72x3 + x82x233x3 
<= 1
x213x37x3 + x213x82x3 + x213x96x3 + x213x182x3 + x213x203x3 + x213x216x3 + x213x145x3 + x213x81x3 + x213x159x3 + x213x72x3 + x213x233x3 
<= 1
x45x37x3 + x45x82x3 + x45x96x3 + x45x182x3 + x45x203x3 + x45x216x3 + x45x145x3 + x45x81x3 + x45x159x3 + x45x72x3 + x45x233x3 
<= 1
x103x82x3 + x103x182x3 + x103x216x3 + x103x145x3 + x103x81x3 + x103x159x3 + x103x72x3 + x103x233x3 
<= 1


- x37x123x2 - x37x72x2 - x37x54x2 - x37x165x2 
= 0
x213x37x3 + x45x37x3 
- x37x0x3
- x37x159x3 - x37x72x3 - x37x233x3 
= 0


x197x82x2 + x219x82x2 + x23x82x2 + x263x82x2 + x178x82x2 
- x82x0x2
- x82x123x2 - x82x72x2 - x82x54x2 - x82x165x2 
= 0
x219x82x3 + x66x82x3 + x213x82x3 + x45x82x3 + x103x82x3 
- x82x0x3
- x82x145x3 - x82x81x3 - x82x159x3 - x82x72x3 - x82x233x3 
= 0



- x94x123x2 - x94x72x2 - x94x54x2 - x94x165x2 
= 0




x213x96x3 + x45x96x3 
- x96x0x3
- x96x72x3 - x96x233x3 
= 0

x230x173x1 + x264x173x1 + x45x173x1 
- x173x0x1
- x173x233x1 
= 0

- x173x72x2 - x173x54x2 - x173x165x2 
= 0




x213x182x3 + x45x182x3 + x103x182x3 
- x182x0x3
- x182x81x3 - x182x159x3 - x182x72x3 - x182x233x3 
= 0

x230x203x1 + x264x203x1 + x45x203x1 
- x203x0x1
- x203x159x1 - x203x233x1 
= 0

x213x203x3 + x45x203x3 
- x203x0x3
- x203x159x3 - x203x72x3 - x203x233x3 
= 0


x197x216x2 + x23x216x2 
- x216x0x2
- x216x123x2 - x216x72x2 - x216x54x2 - x216x165x2 
= 0
x66x216x3 + x213x216x3 + x45x216x3 + x103x216x3 
- x216x0x3
- x216x81x3 - x216x159x3 - x216x72x3 - x216x233x3 
= 0

x23x234x1 + x230x234x1 + x264x234x1 + x45x234x1 + x103x234x1 + x263x234x1 
- x234x0x1
- x234x81x1 - x234x159x1 - x234x233x1 
= 0






- x255x233x3 
= 0


x197x43x2 + x219x43x2 + x23x43x2 + x37x43x2 + x263x43x2 + x178x43x2 
- x43x0x2
- x43x123x2 - x43x72x2 - x43x54x2 - x43x165x2 
= 0




x219x145x3 + x66x145x3 + x37x145x3 + x82x145x3 + x213x145x3 + x45x145x3 + x103x145x3 + x82x145x3 
- x145x0x3
- x145x72x3 - x145x233x3 
= 0

x23x81x1 + x230x81x1 + x264x81x1 + x45x81x1 + x103x81x1 + x263x81x1 + x178x81x1 + x234x81x1 
- x81x0x1
- x81x233x1 
= 0

x219x81x3 + x66x81x3 + x37x81x3 + x82x81x3 + x213x81x3 + x45x81x3 + x103x81x3 + x82x81x3 + x182x81x3 + x216x81x3 
- x81x0x3
- x81x72x3 - x81x233x3 
= 0

x23x159x1 + x230x159x1 + x264x159x1 + x45x159x1 + x103x159x1 + x263x159x1 + x178x159x1 + x203x159x1 + x234x159x1 
- x159x0x1
- x159x233x1 
= 0

x219x159x3 + x66x159x3 + x37x159x3 + x93x159x3 + x82x159x3 + x213x159x3 + x45x159x3 + x103x159x3 + x37x159x3 + x82x159x3 + x182x159x3 + x203x159x3 + x216x159x3 
- x159x0x3
- x159x72x3 - x159x233x3 
= 0


x197x123x2 + x219x123x2 + x23x123x2 + x37x123x2 + x82x123x2 + x263x123x2 + x178x123x2 + x37x123x2 + x82x123x2 + x94x123x2 + x216x123x2 + x43x123x2 
- x123x0x2
- x123x165x2 
= 0



x197x72x2 + x219x72x2 + x23x72x2 + x37x72x2 + x93x72x2 + x82x72x2 + x263x72x2 + x178x72x2 + x37x72x2 + x82x72x2 + x94x72x2 + x173x72x2 + x216x72x2 + x43x72x2 
- x72x0x2
- x72x165x2 
= 0
x219x72x3 + x66x72x3 + x37x72x3 + x93x72x3 + x82x72x3 + x213x72x3 + x45x72x3 + x103x72x3 + x37x72x3 + x82x72x3 + x96x72x3 + x182x72x3 + x203x72x3 + x216x72x3 + x145x72x3 + x81x72x3 + x159x72x3 
- x72x0x3
- x72x233x3 
= 0


x197x54x2 + x219x54x2 + x23x54x2 + x37x54x2 + x93x54x2 + x82x54x2 + x263x54x2 + x178x54x2 + x37x54x2 + x82x54x2 + x94x54x2 + x173x54x2 + x216x54x2 + x43x54x2 
- x54x0x2

= 0



x197x165x2 + x219x165x2 + x23x165x2 + x37x165x2 + x93x165x2 + x82x165x2 + x263x165x2 + x178x165x2 + x37x165x2 + x82x165x2 + x94x165x2 + x173x165x2 + x216x165x2 + x43x165x2 + x123x165x2 + x72x165x2 
- x165x0x2

= 0


x23x233x1 + x230x233x1 + x264x233x1 + x45x233x1 + x103x233x1 + x263x233x1 + x178x233x1 + x173x233x1 + x203x233x1 + x234x233x1 + x81x233x1 + x159x233x1 
- x233x0x1

= 0

x219x233x3 + x66x233x3 + x37x233x3 + x93x233x3 + x82x233x3 + x213x233x3 + x45x233x3 + x103x233x3 + x37x233x3 + x82x233x3 + x96x233x3 + x182x233x3 + x203x233x3 + x216x233x3 + x255x233x3 + x145x233x3 + x81x233x3 + x159x233x3 + x72x233x3 
- x233x0x3

= 0

1y37 = 0
1y37 - x213x37x3 - x45x37x3 = 0
1y82 - x197x82x2 - x219x82x2 - x23x82x2 - x263x82x2 - x178x82x2 = 0
1y82 - x219x82x3 - x66x82x3 - x213x82x3 - x45x82x3 - x103x82x3 = 0
2y94 = 0
2y96 - x213x96x3 - x45x96x3 = 0
1y173 - x230x173x1 - x264x173x1 - x45x173x1 = 0
1y173 = 0
2y182 - x213x182x3 - x45x182x3 - x103x182x3 = 0
1y203 - x230x203x1 - x264x203x1 - x45x203x1 = 0
1y203 - x213x203x3 - x45x203x3 = 0
1y216 - x197x216x2 - x23x216x2 = 0
1y216 - x66x216x3 - x213x216x3 - x45x216x3 - x103x216x3 = 0
2y234 - x23x234x1 - x230x234x1 - x264x234x1 - x45x234x1 - x103x234x1 - x263x234x1 = 0
2y255 = 0
2y43 - x197x43x2 - x219x43x2 - x23x43x2 - x37x43x2 - x263x43x2 - x178x43x2 = 0
2y145 - x219x145x3 - x66x145x3 - x37x145x3 - x82x145x3 - x213x145x3 - x45x145x3 - x103x145x3 - x82x145x3 = 0
1y81 - x23x81x1 - x230x81x1 - x264x81x1 - x45x81x1 - x103x81x1 - x263x81x1 - x178x81x1 - x234x81x1 = 0
1y81 - x219x81x3 - x66x81x3 - x37x81x3 - x82x81x3 - x213x81x3 - x45x81x3 - x103x81x3 - x82x81x3 - x182x81x3 - x216x81x3 = 0
1y159 - x23x159x1 - x230x159x1 - x264x159x1 - x45x159x1 - x103x159x1 - x263x159x1 - x178x159x1 - x203x159x1 - x234x159x1 = 0
1y159 - x219x159x3 - x66x159x3 - x37x159x3 - x93x159x3 - x82x159x3 - x213x159x3 - x45x159x3 - x103x159x3 - x37x159x3 - x82x159x3 - x182x159x3 - x203x159x3 - x216x159x3 = 0
2y123 - x197x123x2 - x219x123x2 - x23x123x2 - x37x123x2 - x82x123x2 - x263x123x2 - x178x123x2 - x37x123x2 - x82x123x2 - x94x123x2 - x216x123x2 - x43x123x2 = 0
1y72 - x197x72x2 - x219x72x2 - x23x72x2 - x37x72x2 - x93x72x2 - x82x72x2 - x263x72x2 - x178x72x2 - x37x72x2 - x82x72x2 - x94x72x2 - x173x72x2 - x216x72x2 - x43x72x2 = 0
1y72 - x219x72x3 - x66x72x3 - x37x72x3 - x93x72x3 - x82x72x3 - x213x72x3 - x45x72x3 - x103x72x3 - x37x72x3 - x82x72x3 - x96x72x3 - x182x72x3 - x203x72x3 - x216x72x3 - x145x72x3 - x81x72x3 - x159x72x3 = 0
2y54 - x197x54x2 - x219x54x2 - x23x54x2 - x37x54x2 - x93x54x2 - x82x54x2 - x263x54x2 - x178x54x2 - x37x54x2 - x82x54x2 - x94x54x2 - x173x54x2 - x216x54x2 - x43x54x2 = 0
2y165 - x197x165x2 - x219x165x2 - x23x165x2 - x37x165x2 - x93x165x2 - x82x165x2 - x263x165x2 - x178x165x2 - x37x165x2 - x82x165x2 - x94x165x2 - x173x165x2 - x216x165x2 - x43x165x2 - x123x165x2 - x72x165x2 = 0
1y233 - x23x233x1 - x230x233x1 - x264x233x1 - x45x233x1 - x103x233x1 - x263x233x1 - x178x233x1 - x173x233x1 - x203x233x1 - x234x233x1 - x81x233x1 - x159x233x1 = 0
1y233 - x219x233x3 - x66x233x3 - x37x233x3 - x93x233x3 - x82x233x3 - x213x233x3 - x45x233x3 - x103x233x3 - x37x233x3 - x82x233x3 - x96x233x3 - x182x233x3 - x203x233x3 - x216x233x3 - x255x233x3 - x145x233x3 - x81x233x3 - x159x233x3 - x72x233x3 = 0

s197 - s82 + 6.541183z197z82z2 <= 4.90
s197 - s216 + 6.480884z197z216z2 <= 4.90
s197 - s43 + 6.367162z197z43z2 <= 4.90
s197 - s123 + 6.572013z197z123z2 <= 4.90
s197 - s72 + 6.497418z197z72z2 <= 4.90
s197 - s54 + 6.371873z197z54z2 <= 4.90
s197 - s165 + 6.538067z197z165z2 <= 4.90
s219 - s82 + 6.798326z219z82z2 <= 5.52
s219 - s82 + 6.798326z219z82z3 <= 5.52
s219 - s43 + 6.819459z219z43z2 <= 5.52
s219 - s145 + 6.840998z219z145z3 <= 5.52
s219 - s81 + 6.938458z219z81z3 <= 5.52
s219 - s159 + 6.936394z219z159z3 <= 5.52
s219 - s123 + 6.964280z219z123z2 <= 5.52
s219 - s72 + 6.979156z219z72z2 <= 5.52
s219 - s72 + 6.979156z219z72z3 <= 5.52
s219 - s54 + 6.935012z219z54z2 <= 5.52
s219 - s165 + 7.022038z219z165z2 <= 5.52
s219 - s233 + 7.038296z219z233z3 <= 5.52
s66 - s82 + 6.634353z66z82z3 <= 5.39
s66 - s216 + 6.569355z66z216z3 <= 5.39
s66 - s145 + 6.702240z66z145z3 <= 5.39
s66 - s81 + 6.678236z66z81z3 <= 5.39
s66 - s159 + 6.626553z66z159z3 <= 5.39
s66 - s72 + 6.674300z66z72z3 <= 5.39
s66 - s233 + 6.761134z66z233z3 <= 5.39
s23 - s82 + 6.620737z23z82z2 <= 5.38
s23 - s216 + 6.567822z23z216z2 <= 5.38
s23 - s234 + 6.514250z23z234z1 <= 5.38
s23 - s43 + 6.446259z23z43z2 <= 5.38
s23 - s81 + 6.634516z23z81z1 <= 5.38
s23 - s159 + 6.573968z23z159z1 <= 5.38
s23 - s123 + 6.672138z23z123z2 <= 5.38
s23 - s72 + 6.619630z23z72z2 <= 5.38
s23 - s54 + 6.503804z23z54z2 <= 5.38
s23 - s165 + 6.669701z23z165z2 <= 5.38
s23 - s233 + 6.708636z23z233z1 <= 5.38
s37 - s43 + 6.991830z37z43z2 <= 5.84
s37 - s145 + 7.062617z37z145z3 <= 5.84
s37 - s81 + 7.121784z37z81z3 <= 5.84
s37 - s159 + 7.109457z37z159z3 <= 5.84
s37 - s123 + 7.152288z37z123z2 <= 5.84
s37 - s72 + 7.154273z37z72z2 <= 5.84
s37 - s72 + 7.154273z37z72z3 <= 5.84
s37 - s54 + 7.105305z37z54z2 <= 5.84
s37 - s165 + 7.199869z37z165z2 <= 5.84
s37 - s233 + 7.221266z37z233z3 <= 5.84
s93 - s159 + 7.273269z93z159z3 <= 5.90
s93 - s72 + 7.303741z93z72z2 <= 5.90
s93 - s72 + 7.303741z93z72z3 <= 5.90
s93 - s54 + 7.180430z93z54z2 <= 5.90
s93 - s165 + 7.343276z93z165z2 <= 5.90
s93 - s233 + 7.387921z93z233z3 <= 5.90
s82 - s145 + 7.042970z82z145z3 <= 5.97
s82 - s81 + 7.121906z82z81z3 <= 5.97
s82 - s159 + 7.148816z82z159z3 <= 5.97
s82 - s123 + 7.142195z82z123z2 <= 5.97
s82 - s72 + 7.177857z82z72z2 <= 5.97
s82 - s72 + 7.177857z82z72z3 <= 5.97
s82 - s54 + 7.201097z82z54z2 <= 5.97
s82 - s165 + 7.210788z82z165z2 <= 5.97
s82 - s233 + 7.218828z82z233z3 <= 5.97
s230 - s173 + 5.991448z230z173z1 <= 4.72
s230 - s203 + 6.067858z230z203z1 <= 4.72
s230 - s234 + 6.089821z230z234z1 <= 4.72
s230 - s81 + 6.312333z230z81z1 <= 4.72
s230 - s159 + 6.286905z230z159z1 <= 4.72
s230 - s233 + 6.410108z230z233z1 <= 4.72
s213 - s37 + 6.157488z213z37z3 <= 4.72
s213 - s82 + 6.267509z213z82z3 <= 4.72
s213 - s96 + 6.277554z213z96z3 <= 4.72
s213 - s182 + 6.271996z213z182z3 <= 4.72
s213 - s203 + 6.187414z213z203z3 <= 4.72
s213 - s216 + 6.200361z213z216z3 <= 4.72
s213 - s145 + 6.335342z213z145z3 <= 4.72
s213 - s81 + 6.290133z213z81z3 <= 4.72
s213 - s159 + 6.223132z213z159z3 <= 4.72
s213 - s72 + 6.263148z213z72z3 <= 4.72
s213 - s233 + 6.352271z213z233z3 <= 4.72
s264 - s173 + 6.138026z264z173z1 <= 4.89
s264 - s203 + 6.213199z264z203z1 <= 4.89
s264 - s234 + 6.239606z264z234z1 <= 4.89
s264 - s81 + 6.460708z264z81z1 <= 4.89
s264 - s159 + 6.438322z264z159z1 <= 4.89
s264 - s233 + 6.559204z264z233z1 <= 4.89
s45 - s37 + 6.263643z45z37z3 <= 4.89
s45 - s82 + 6.408795z45z82z3 <= 4.89
s45 - s96 + 6.286791z45z96z3 <= 4.89
s45 - s173 + 6.224183z45z173z1 <= 4.89
s45 - s182 + 6.334972z45z182z3 <= 4.89
s45 - s203 + 6.290750z45z203z1 <= 4.89
s45 - s203 + 6.290750z45z203z3 <= 4.89
s45 - s216 + 6.350685z45z216z3 <= 4.89
s45 - s234 + 6.332065z45z234z1 <= 4.89
s45 - s145 + 6.452942z45z145z3 <= 4.89
s45 - s81 + 6.544127z45z81z1 <= 4.89
s45 - s81 + 6.544127z45z81z3 <= 4.89
s45 - s159 + 6.531949z45z159z1 <= 4.89
s45 - s159 + 6.531949z45z159z3 <= 4.89
s45 - s72 + 6.577725z45z72z3 <= 4.89
s45 - s233 + 6.644055z45z233z1 <= 4.89
s45 - s233 + 6.644055z45z233z3 <= 4.89
s103 - s82 + 6.532520z103z82z3 <= 4.83
s103 - s182 + 6.551524z103z182z3 <= 4.83
s103 - s216 + 6.473248z103z216z3 <= 4.83
s103 - s234 + 6.411987z103z234z1 <= 4.83
s103 - s145 + 6.597261z103z145z3 <= 4.83
s103 - s81 + 6.523144z103z81z1 <= 4.83
s103 - s81 + 6.523144z103z81z3 <= 4.83
s103 - s159 + 6.450026z103z159z1 <= 4.83
s103 - s159 + 6.450026z103z159z3 <= 4.83
s103 - s72 + 6.481090z103z72z3 <= 4.83
s103 - s233 + 6.564757z103z233z1 <= 4.83
s103 - s233 + 6.564757z103z233z3 <= 4.83
s263 - s82 + 6.695014z263z82z2 <= 4.90
s263 - s234 + 6.577657z263z234z1 <= 4.90
s263 - s43 + 6.520551z263z43z2 <= 4.90
s263 - s81 + 6.676301z263z81z1 <= 4.90
s263 - s159 + 6.602255z263z159z1 <= 4.90
s263 - s123 + 6.709661z263z123z2 <= 4.90
s263 - s72 + 6.629947z263z72z2 <= 4.90
s263 - s54 + 6.509637z263z54z2 <= 4.90
s263 - s165 + 6.665868z263z165z2 <= 4.90
s263 - s233 + 6.710516z263z233z1 <= 4.90
s178 - s82 + 6.799204z178z82z2 <= 4.97
s178 - s43 + 6.800413z178z43z2 <= 4.97
s178 - s81 + 6.940957z178z81z1 <= 4.97
s178 - s159 + 6.935042z178z159z1 <= 4.97
s178 - s123 + 6.966323z178z123z2 <= 4.97
s178 - s72 + 6.979605z178z72z2 <= 4.97
s178 - s54 + 6.918369z178z54z2 <= 4.97
s178 - s165 + 7.023863z178z165z2 <= 4.97
s178 - s233 + 7.040783z178z233z1 <= 4.97
s37 - s159 + 7.619650z37z159z3 <= 6.35
s37 - s123 + 7.662481z37z123z2 <= 6.35
s37 - s72 + 7.664466z37z72z2 <= 6.35
s37 - s72 + 7.664466z37z72z3 <= 6.35
s37 - s54 + 7.615498z37z54z2 <= 6.35
s37 - s165 + 7.710062z37z165z2 <= 6.35
s37 - s233 + 7.731459z37z233z3 <= 6.35
s82 - s145 + 7.888638z82z145z3 <= 6.82
s82 - s81 + 7.967573z82z81z3 <= 6.82
s82 - s159 + 7.994483z82z159z3 <= 6.82
s82 - s123 + 7.987863z82z123z2 <= 6.82
s82 - s72 + 8.023524z82z72z2 <= 6.82
s82 - s72 + 8.023524z82z72z3 <= 6.82
s82 - s54 + 8.046764z82z54z2 <= 6.82
s82 - s165 + 8.056456z82z165z2 <= 6.82
s82 - s233 + 8.064495z82z233z3 <= 6.82
s94 - s123 + 7.640197z94z123z2 <= 6.33
s94 - s72 + 7.645876z94z72z2 <= 6.33
s94 - s54 + 7.602111z94z54z2 <= 6.33
s94 - s165 + 7.690555z94z165z2 <= 6.33
s96 - s72 + 7.829934z96z72z3 <= 6.49
s96 - s233 + 7.873260z96z233z3 <= 6.49
s173 - s72 + 7.593585z173z72z2 <= 6.24
s173 - s54 + 7.535898z173z54z2 <= 6.24
s173 - s165 + 7.640055z173z165z2 <= 6.24
s173 - s233 + 7.662584z173z233z1 <= 6.24
s182 - s81 + 7.851900z182z81z3 <= 6.62
s182 - s159 + 7.873421z182z159z3 <= 6.62
s182 - s72 + 7.906279z182z72z3 <= 6.62
s182 - s233 + 7.948295z182z233z3 <= 6.62
s203 - s159 + 7.659087z203z159z1 <= 6.41
s203 - s159 + 7.659087z203z159z3 <= 6.41
s203 - s72 + 7.701586z203z72z3 <= 6.41
s203 - s233 + 7.763396z203z233z1 <= 6.41
s203 - s233 + 7.763396z203z233z3 <= 6.41
s216 - s81 + 7.803449z216z81z3 <= 6.61
s216 - s159 + 7.801950z216z159z3 <= 6.61
s216 - s123 + 7.832511z216z123z2 <= 6.61
s216 - s72 + 7.842857z216z72z2 <= 6.61
s216 - s72 + 7.842857z216z72z3 <= 6.61
s216 - s54 + 7.822185z216z54z2 <= 6.61
s216 - s165 + 7.885358z216z165z2 <= 6.61
s216 - s233 + 7.903409z216z233z3 <= 6.61
s234 - s81 + 7.853508z234z81z1 <= 6.63
s234 - s159 + 7.830112z234z159z1 <= 6.63
s234 - s233 + 7.950347z234z233z1 <= 6.63
s255 - s233 + 7.556328z255z233z3 <= 6.08
s43 - s123 + 8.251569z43z123z2 <= 7.01
s43 - s72 + 8.214505z43z72z2 <= 7.01
s43 - s54 + 8.128134z43z54z2 <= 7.01
s43 - s165 + 8.265169z43z165z2 <= 7.01
s145 - s72 + 8.307665z145z72z3 <= 7.09
s145 - s233 + 8.322571z145z233z3 <= 7.09
s81 - s72 + 8.308638z81z72z3 <= 7.24
s81 - s233 + 8.340000z81z233z1 <= 7.24
s81 - s233 + 8.340000z81z233z3 <= 7.24
s159 - s72 + 8.338534z159z72z3 <= 7.29
s159 - s233 + 8.424990z159z233z1 <= 7.29
s159 - s233 + 8.424990z159z233z3 <= 7.29
s123 - s165 + 8.425375z123z165z2 <= 7.34
s72 - s165 + 8.460772z72z165z2 <= 7.41
s72 - s233 + 8.499691z72z233z3 <= 7.41

x197x82x2 - 1z197z82z2 <= 0
x197x216x2 - 1z197z216z2 <= 0
x197x43x2 - 2z197z43z2 <= 0
x197x123x2 - 2z197z123z2 <= 0
x197x72x2 - 1z197z72z2 <= 0
x197x54x2 - 2z197z54z2 <= 0
x197x165x2 - 2z197z165z2 <= 0
x219x82x2 - 1z219z82z2 <= 0
x219x82x3 - 1z219z82z3 <= 0
x219x43x2 - 2z219z43z2 <= 0
x219x145x3 - 2z219z145z3 <= 0
x219x81x3 - 1z219z81z3 <= 0
x219x159x3 - 1z219z159z3 <= 0
x219x123x2 - 2z219z123z2 <= 0
x219x72x2 - 1z219z72z2 <= 0
x219x72x3 - 1z219z72z3 <= 0
x219x54x2 - 2z219z54z2 <= 0
x219x165x2 - 2z219z165z2 <= 0
x219x233x3 - 1z219z233z3 <= 0
x66x82x3 - 1z66z82z3 <= 0
x66x216x3 - 1z66z216z3 <= 0
x66x145x3 - 2z66z145z3 <= 0
x66x81x3 - 1z66z81z3 <= 0
x66x159x3 - 1z66z159z3 <= 0
x66x72x3 - 1z66z72z3 <= 0
x66x233x3 - 1z66z233z3 <= 0
x23x82x2 - 1z23z82z2 <= 0
x23x216x2 - 1z23z216z2 <= 0
x23x234x1 - 2z23z234z1 <= 0
x23x43x2 - 2z23z43z2 <= 0
x23x81x1 - 1z23z81z1 <= 0
x23x159x1 - 1z23z159z1 <= 0
x23x123x2 - 2z23z123z2 <= 0
x23x72x2 - 1z23z72z2 <= 0
x23x54x2 - 2z23z54z2 <= 0
x23x165x2 - 2z23z165z2 <= 0
x23x233x1 - 1z23z233z1 <= 0
x37x43x2 - 2z37z43z2 <= 0
x37x145x3 - 2z37z145z3 <= 0
x37x81x3 - 1z37z81z3 <= 0
x37x159x3 - 1z37z159z3 <= 0
x37x123x2 - 2z37z123z2 <= 0
x37x72x2 - 1z37z72z2 <= 0
x37x72x3 - 1z37z72z3 <= 0
x37x54x2 - 2z37z54z2 <= 0
x37x165x2 - 2z37z165z2 <= 0
x37x233x3 - 1z37z233z3 <= 0
x93x159x3 - 1z93z159z3 <= 0
x93x72x2 - 1z93z72z2 <= 0
x93x72x3 - 1z93z72z3 <= 0
x93x54x2 - 2z93z54z2 <= 0
x93x165x2 - 2z93z165z2 <= 0
x93x233x3 - 1z93z233z3 <= 0
x82x145x3 - 2z82z145z3 <= 0
x82x81x3 - 1z82z81z3 <= 0
x82x159x3 - 1z82z159z3 <= 0
x82x123x2 - 2z82z123z2 <= 0
x82x72x2 - 1z82z72z2 <= 0
x82x72x3 - 1z82z72z3 <= 0
x82x54x2 - 2z82z54z2 <= 0
x82x165x2 - 2z82z165z2 <= 0
x82x233x3 - 1z82z233z3 <= 0
x230x173x1 - 1z230z173z1 <= 0
x230x203x1 - 1z230z203z1 <= 0
x230x234x1 - 2z230z234z1 <= 0
x230x81x1 - 1z230z81z1 <= 0
x230x159x1 - 1z230z159z1 <= 0
x230x233x1 - 1z230z233z1 <= 0
x213x37x3 - 1z213z37z3 <= 0
x213x82x3 - 1z213z82z3 <= 0
x213x96x3 - 2z213z96z3 <= 0
x213x182x3 - 2z213z182z3 <= 0
x213x203x3 - 1z213z203z3 <= 0
x213x216x3 - 1z213z216z3 <= 0
x213x145x3 - 2z213z145z3 <= 0
x213x81x3 - 1z213z81z3 <= 0
x213x159x3 - 1z213z159z3 <= 0
x213x72x3 - 1z213z72z3 <= 0
x213x233x3 - 1z213z233z3 <= 0
x264x173x1 - 1z264z173z1 <= 0
x264x203x1 - 1z264z203z1 <= 0
x264x234x1 - 2z264z234z1 <= 0
x264x81x1 - 1z264z81z1 <= 0
x264x159x1 - 1z264z159z1 <= 0
x264x233x1 - 1z264z233z1 <= 0
x45x37x3 - 1z45z37z3 <= 0
x45x82x3 - 1z45z82z3 <= 0
x45x96x3 - 2z45z96z3 <= 0
x45x173x1 - 1z45z173z1 <= 0
x45x182x3 - 2z45z182z3 <= 0
x45x203x1 - 1z45z203z1 <= 0
x45x203x3 - 1z45z203z3 <= 0
x45x216x3 - 1z45z216z3 <= 0
x45x234x1 - 2z45z234z1 <= 0
x45x145x3 - 2z45z145z3 <= 0
x45x81x1 - 1z45z81z1 <= 0
x45x81x3 - 1z45z81z3 <= 0
x45x159x1 - 1z45z159z1 <= 0
x45x159x3 - 1z45z159z3 <= 0
x45x72x3 - 1z45z72z3 <= 0
x45x233x1 - 1z45z233z1 <= 0
x45x233x3 - 1z45z233z3 <= 0
x103x82x3 - 1z103z82z3 <= 0
x103x182x3 - 2z103z182z3 <= 0
x103x216x3 - 1z103z216z3 <= 0
x103x234x1 - 2z103z234z1 <= 0
x103x145x3 - 2z103z145z3 <= 0
x103x81x1 - 1z103z81z1 <= 0
x103x81x3 - 1z103z81z3 <= 0
x103x159x1 - 1z103z159z1 <= 0
x103x159x3 - 1z103z159z3 <= 0
x103x72x3 - 1z103z72z3 <= 0
x103x233x1 - 1z103z233z1 <= 0
x103x233x3 - 1z103z233z3 <= 0
x263x82x2 - 1z263z82z2 <= 0
x263x234x1 - 2z263z234z1 <= 0
x263x43x2 - 2z263z43z2 <= 0
x263x81x1 - 1z263z81z1 <= 0
x263x159x1 - 1z263z159z1 <= 0
x263x123x2 - 2z263z123z2 <= 0
x263x72x2 - 1z263z72z2 <= 0
x263x54x2 - 2z263z54z2 <= 0
x263x165x2 - 2z263z165z2 <= 0
x263x233x1 - 1z263z233z1 <= 0
x178x82x2 - 1z178z82z2 <= 0
x178x43x2 - 2z178z43z2 <= 0
x178x81x1 - 1z178z81z1 <= 0
x178x159x1 - 1z178z159z1 <= 0
x178x123x2 - 2z178z123z2 <= 0
x178x72x2 - 1z178z72z2 <= 0
x178x54x2 - 2z178z54z2 <= 0
x178x165x2 - 2z178z165z2 <= 0
x178x233x1 - 1z178z233z1 <= 0
x37x159x3 - 1z37z159z3 <= 0
x37x123x2 - 2z37z123z2 <= 0
x37x72x2 - 1z37z72z2 <= 0
x37x72x3 - 1z37z72z3 <= 0
x37x54x2 - 2z37z54z2 <= 0
x37x165x2 - 2z37z165z2 <= 0
x37x233x3 - 1z37z233z3 <= 0
x37x0x2 <= 1
x37x0x3 <= 1
x82x145x3 - 2z82z145z3 <= 0
x82x81x3 - 1z82z81z3 <= 0
x82x159x3 - 1z82z159z3 <= 0
x82x123x2 - 2z82z123z2 <= 0
x82x72x2 - 1z82z72z2 <= 0
x82x72x3 - 1z82z72z3 <= 0
x82x54x2 - 2z82z54z2 <= 0
x82x165x2 - 2z82z165z2 <= 0
x82x233x3 - 1z82z233z3 <= 0
x82x0x2 <= 1
x82x0x3 <= 1
x94x123x2 - 2z94z123z2 <= 0
x94x72x2 - 1z94z72z2 <= 0
x94x54x2 - 2z94z54z2 <= 0
x94x165x2 - 2z94z165z2 <= 0
x94x0x2 <= 2
x96x72x3 - 1z96z72z3 <= 0
x96x233x3 - 1z96z233z3 <= 0
x96x0x3 <= 2
x173x72x2 - 1z173z72z2 <= 0
x173x54x2 - 2z173z54z2 <= 0
x173x165x2 - 2z173z165z2 <= 0
x173x233x1 - 1z173z233z1 <= 0
x173x0x1 <= 1
x173x0x2 <= 1
x182x81x3 - 1z182z81z3 <= 0
x182x159x3 - 1z182z159z3 <= 0
x182x72x3 - 1z182z72z3 <= 0
x182x233x3 - 1z182z233z3 <= 0
x182x0x3 <= 2
x203x159x1 - 1z203z159z1 <= 0
x203x159x3 - 1z203z159z3 <= 0
x203x72x3 - 1z203z72z3 <= 0
x203x233x1 - 1z203z233z1 <= 0
x203x233x3 - 1z203z233z3 <= 0
x203x0x1 <= 1
x203x0x3 <= 1
x216x81x3 - 1z216z81z3 <= 0
x216x159x3 - 1z216z159z3 <= 0
x216x123x2 - 2z216z123z2 <= 0
x216x72x2 - 1z216z72z2 <= 0
x216x72x3 - 1z216z72z3 <= 0
x216x54x2 - 2z216z54z2 <= 0
x216x165x2 - 2z216z165z2 <= 0
x216x233x3 - 1z216z233z3 <= 0
x216x0x2 <= 1
x216x0x3 <= 1
x234x81x1 - 1z234z81z1 <= 0
x234x159x1 - 1z234z159z1 <= 0
x234x233x1 - 1z234z233z1 <= 0
x234x0x1 <= 2
x255x233x3 - 1z255z233z3 <= 0
x255x0x3 <= 2
x43x123x2 - 2z43z123z2 <= 0
x43x72x2 - 1z43z72z2 <= 0
x43x54x2 - 2z43z54z2 <= 0
x43x165x2 - 2z43z165z2 <= 0
x43x0x2 <= 2
x145x72x3 - 1z145z72z3 <= 0
x145x233x3 - 1z145z233z3 <= 0
x145x0x3 <= 2
x81x72x3 - 1z81z72z3 <= 0
x81x233x1 - 1z81z233z1 <= 0
x81x233x3 - 1z81z233z3 <= 0
x81x0x1 <= 1
x81x0x3 <= 1
x159x72x3 - 1z159z72z3 <= 0
x159x233x1 - 1z159z233z1 <= 0
x159x233x3 - 1z159z233z3 <= 0
x159x0x1 <= 1
x159x0x3 <= 1
x123x165x2 - 2z123z165z2 <= 0
x123x0x2 <= 2
x72x165x2 - 2z72z165z2 <= 0
x72x233x3 - 1z72z233z3 <= 0
x72x0x2 <= 1
x72x0x3 <= 1
x54x0x2 <= 2
x165x0x2 <= 2
x233x0x1 <= 1
x233x0x3 <= 1

Bounds
s197 = 4.897789
s219 = 5.517613
s66 = 5.393983
s23 = 5.379260
s37 = 5.839807
s93 = 5.904186
s82 = 5.974333
s230 = 4.723700
s213 = 4.715020
s264 = 4.890640
s45 = 4.890250
s103 = 4.831030
s263 = 4.904290
s178 = 4.972430
6.000000 <= s37 <= 6.350000
6.000000 <= s82 <= 6.820000
6.000000 <= s94 <= 6.330000
6.000000 <= s96 <= 6.490000
6.000000 <= s173 <= 6.240000
6.000000 <= s182 <= 6.620000
6.000000 <= s203 <= 6.410000
6.000000 <= s216 <= 6.610000
6.000000 <= s234 <= 6.630000
6.000000 <= s255 <= 6.080000
6.010000 <= s43 <= 7.010000
6.090000 <= s145 <= 7.090000
6.240000 <= s81 <= 7.240000
6.290000 <= s159 <= 7.290000
6.340000 <= s123 <= 7.340000
6.410000 <= s72 <= 7.410000
6.530000 <= s54 <= 7.530000
6.530000 <= s165 <= 7.530000
6.570000 <= s233 <= 7.570000

General
x197x82x2 x197x216x2 x197x43x2 x197x123x2 x197x72x2 x197x54x2 x197x165x2 
x219x82x2 x219x82x3 x219x43x2 x219x145x3 x219x81x3 x219x159x3 x219x123x2 x219x72x2 x219x72x3 x219x54x2 x219x165x2 x219x233x3 
x66x82x3 x66x216x3 x66x145x3 x66x81x3 x66x159x3 x66x72x3 x66x233x3 
x23x82x2 x23x216x2 x23x234x1 x23x43x2 x23x81x1 x23x159x1 x23x123x2 x23x72x2 x23x54x2 x23x165x2 x23x233x1 
x37x43x2 x37x145x3 x37x81x3 x37x159x3 x37x123x2 x37x72x2 x37x72x3 x37x54x2 x37x165x2 x37x233x3 
x93x159x3 x93x72x2 x93x72x3 x93x54x2 x93x165x2 x93x233x3 
x82x145x3 x82x81x3 x82x159x3 x82x123x2 x82x72x2 x82x72x3 x82x54x2 x82x165x2 x82x233x3 
x230x173x1 x230x203x1 x230x234x1 x230x81x1 x230x159x1 x230x233x1 
x213x37x3 x213x82x3 x213x96x3 x213x182x3 x213x203x3 x213x216x3 x213x145x3 x213x81x3 x213x159x3 x213x72x3 x213x233x3 
x264x173x1 x264x203x1 x264x234x1 x264x81x1 x264x159x1 x264x233x1 
x45x37x3 x45x82x3 x45x96x3 x45x173x1 x45x182x3 x45x203x1 x45x203x3 x45x216x3 x45x234x1 x45x145x3 x45x81x1 x45x81x3 x45x159x1 x45x159x3 x45x72x3 x45x233x1 x45x233x3 
x103x82x3 x103x182x3 x103x216x3 x103x234x1 x103x145x3 x103x81x1 x103x81x3 x103x159x1 x103x159x3 x103x72x3 x103x233x1 x103x233x3 
x263x82x2 x263x234x1 x263x43x2 x263x81x1 x263x159x1 x263x123x2 x263x72x2 x263x54x2 x263x165x2 x263x233x1 
x178x82x2 x178x43x2 x178x81x1 x178x159x1 x178x123x2 x178x72x2 x178x54x2 x178x165x2 x178x233x1 
x37x159x3 x37x123x2 x37x72x2 x37x72x3 x37x54x2 x37x165x2 x37x233x3 x37x0x2 x37x0x3 
x82x145x3 x82x81x3 x82x159x3 x82x123x2 x82x72x2 x82x72x3 x82x54x2 x82x165x2 x82x233x3 x82x0x2 x82x0x3 
x94x123x2 x94x72x2 x94x54x2 x94x165x2 x94x0x2 
x96x72x3 x96x233x3 x96x0x3 
x173x72x2 x173x54x2 x173x165x2 x173x233x1 x173x0x1 x173x0x2 
x182x81x3 x182x159x3 x182x72x3 x182x233x3 x182x0x3 
x203x159x1 x203x159x3 x203x72x3 x203x233x1 x203x233x3 x203x0x1 x203x0x3 
x216x81x3 x216x159x3 x216x123x2 x216x72x2 x216x72x3 x216x54x2 x216x165x2 x216x233x3 x216x0x2 x216x0x3 
x234x81x1 x234x159x1 x234x233x1 x234x0x1 
x255x233x3 x255x0x3 
x43x123x2 x43x72x2 x43x54x2 x43x165x2 x43x0x2 
x145x72x3 x145x233x3 x145x0x3 
x81x72x3 x81x233x1 x81x233x3 x81x0x1 x81x0x3 
x159x72x3 x159x233x1 x159x233x3 x159x0x1 x159x0x3 
x123x165x2 x123x0x2 
x72x165x2 x72x233x3 x72x0x2 x72x0x3 
x54x0x2 
x165x0x2 
x233x0x1 x233x0x3 

Binaries
y37 y82 y94 y96 y173 y182 y203 y216 y234 y255 y43 y145 y81 y159 y123 y72 y54 y165 y233 
z197z82z2 z197z216z2 z197z43z2 z197z123z2 z197z72z2 z197z54z2 z197z165z2 
z219z82z2 z219z82z3 z219z43z2 z219z145z3 z219z81z3 z219z159z3 z219z123z2 z219z72z2 z219z72z3 z219z54z2 z219z165z2 z219z233z3 
z66z82z3 z66z216z3 z66z145z3 z66z81z3 z66z159z3 z66z72z3 z66z233z3 
z23z82z2 z23z216z2 z23z234z1 z23z43z2 z23z81z1 z23z159z1 z23z123z2 z23z72z2 z23z54z2 z23z165z2 z23z233z1 
z37z43z2 z37z145z3 z37z81z3 z37z159z3 z37z123z2 z37z72z2 z37z72z3 z37z54z2 z37z165z2 z37z233z3 
z93z159z3 z93z72z2 z93z72z3 z93z54z2 z93z165z2 z93z233z3 
z82z145z3 z82z81z3 z82z159z3 z82z123z2 z82z72z2 z82z72z3 z82z54z2 z82z165z2 z82z233z3 
z230z173z1 z230z203z1 z230z234z1 z230z81z1 z230z159z1 z230z233z1 
z213z37z3 z213z82z3 z213z96z3 z213z182z3 z213z203z3 z213z216z3 z213z145z3 z213z81z3 z213z159z3 z213z72z3 z213z233z3 
z264z173z1 z264z203z1 z264z234z1 z264z81z1 z264z159z1 z264z233z1 
z45z37z3 z45z82z3 z45z96z3 z45z173z1 z45z182z3 z45z203z1 z45z203z3 z45z216z3 z45z234z1 z45z145z3 z45z81z1 z45z81z3 z45z159z1 z45z159z3 z45z72z3 z45z233z1 z45z233z3 
z103z82z3 z103z182z3 z103z216z3 z103z234z1 z103z145z3 z103z81z1 z103z81z3 z103z159z1 z103z159z3 z103z72z3 z103z233z1 z103z233z3 
z263z82z2 z263z234z1 z263z43z2 z263z81z1 z263z159z1 z263z123z2 z263z72z2 z263z54z2 z263z165z2 z263z233z1 
z178z82z2 z178z43z2 z178z81z1 z178z159z1 z178z123z2 z178z72z2 z178z54z2 z178z165z2 z178z233z1 
z37z159z3 z37z123z2 z37z72z2 z37z72z3 z37z54z2 z37z165z2 z37z233z3 
z82z145z3 z82z81z3 z82z159z3 z82z123z2 z82z72z2 z82z72z3 z82z54z2 z82z165z2 z82z233z3 
z94z123z2 z94z72z2 z94z54z2 z94z165z2 
z96z72z3 z96z233z3 
z173z72z2 z173z54z2 z173z165z2 z173z233z1 
z182z81z3 z182z159z3 z182z72z3 z182z233z3 
z203z159z1 z203z159z3 z203z72z3 z203z233z1 z203z233z3 
z216z81z3 z216z159z3 z216z123z2 z216z72z2 z216z72z3 z216z54z2 z216z165z2 z216z233z3 
z234z81z1 z234z159z1 z234z233z1 
z255z233z3 
z43z123z2 z43z72z2 z43z54z2 z43z165z2 
z145z72z3 z145z233z3 
z81z72z3 z81z233z1 z81z233z3 
z159z72z3 z159z233z1 z159z233z3 
z123z165z2 
z72z165z2 z72z233z3 




End